226 173889
1 73 74 75 76 77 78 79 80 81 82 83 85 86 84 72 68 65 57 58 59 60 61 62 63 64 119 224 226 225 223 222 221 220 219 218 217 216 215 214 213 211 205 197 190 189 188 94 93 44 37 35 34 30 29 28 27 26 25 24 23 22 50 51 52 53 54 55 56 137 144 138 139 140 147 146 145 141 142 149 148 150 143 136 135 134 133 110 109 108 114 112 111 70 69 71 13 12 8 5 6 7 9 10 14 15 20 21 49 48 33 32 31 36 45 46 47 95 96 98 191 192 193 194 195 196 198 199 200 201 202 203 204 206 207 208 209 210 212 123 120 118 117 116 115 107 106 113 104 105 103 67 17 18 19 168 169 170 171 172 173 174 175 176 177 178 179 180 181 182 183 184 185 186 187 125 124 132 130 131 129 122 127 121 128 126 101 102 100 99 92 91 90 97 88 89 87 43 42 38 39 40 41 151 152 153 154 155 156 157 158 159 160 161 162 163 164 165 166 167 66 16 11 4 3 2 
